; benchmark generated from python API
(set-info :status unknown)
(declare-fun x_months () Int)
(declare-fun x_beta () Int)
(declare-fun y_months () Int)
(declare-fun y_beta () Int)
(declare-fun z_months () Int)
(declare-fun z_beta () Int)
(assert
 (<= (- 1202) x_months))
(assert
 (>= 1209 x_months))
(assert
 (let ((?x1159 (mod x_months 48)))
 (let ((?x13 ((as const (Array Int Int)) 0)))
 (let ((?x15 (store ?x13 0 31)))
 (let ((?x18 (store ?x15 1 30)))
 (let ((?x20 (store ?x18 2 31)))
 (let ((?x22 (store ?x20 3 30)))
 (let ((?x24 (store ?x22 4 31)))
 (let ((?x26 (store ?x24 5 31)))
 (let ((?x28 (store ?x26 6 30)))
 (let ((?x30 (store ?x28 7 31)))
 (let ((?x32 (store ?x30 8 30)))
 (let ((?x34 (store ?x32 9 31)))
 (let ((?x36 (store ?x34 10 31)))
 (let ((?x39 (store ?x36 11 28)))
 (let ((?x41 (store ?x39 12 31)))
 (let ((?x43 (store ?x41 13 30)))
 (let ((?x45 (store ?x43 14 31)))
 (let ((?x47 (store ?x45 15 30)))
 (let ((?x49 (store ?x47 16 31)))
 (let ((?x51 (store ?x49 17 31)))
 (let ((?x53 (store ?x51 18 30)))
 (let ((?x55 (store ?x53 19 31)))
 (let ((?x57 (store ?x55 20 30)))
 (let ((?x59 (store ?x57 21 31)))
 (let ((?x61 (store ?x59 22 31)))
 (let ((?x63 (store ?x61 23 28)))
 (let ((?x65 (store ?x63 24 31)))
 (let ((?x67 (store ?x65 25 30)))
 (let ((?x69 (store ?x67 26 31)))
 (let ((?x71 (store ?x69 27 30)))
 (let ((?x72 (store ?x71 28 31)))
 (let ((?x74 (store ?x72 29 31)))
 (let ((?x75 (store ?x74 30 30)))
 (let ((?x76 (store ?x75 31 31)))
 (let ((?x78 (store ?x76 32 30)))
 (let ((?x80 (store ?x78 33 31)))
 (let ((?x82 (store ?x80 34 31)))
 (let ((?x84 (store ?x82 35 28)))
 (let ((?x86 (store ?x84 36 31)))
 (let ((?x88 (store ?x86 37 30)))
 (let ((?x90 (store ?x88 38 31)))
 (let ((?x92 (store ?x90 39 30)))
 (let ((?x94 (store ?x92 40 31)))
 (let ((?x96 (store ?x94 41 31)))
 (let ((?x98 (store ?x96 42 30)))
 (let ((?x100 (store ?x98 43 31)))
 (let ((?x102 (store ?x100 44 30)))
 (let ((?x104 (store ?x102 45 31)))
 (let ((?x106 (store ?x104 46 31)))
 (let ((?x108 (store ?x106 47 29)))
 (let ((?x4417 (select ?x108 ?x1159)))
 (let ((?x3773 (ite (or (= 22802 (+ x_months 24003)) (= 25202 (+ x_months 24003))) 28 ?x4417)))
 (let (($x3204 (<= 0 x_beta)))
 (and $x3204 (< x_beta ?x3773))))))))))))))))))))))))))))))))))))))))))))))))))))))))
(assert
 (and (= x_months (- (+ (* 2023 12) 1) 24003)) (= 30 x_beta)))
(assert
 (<= (- 1202) y_months))
(assert
 (>= 1209 y_months))
(assert
 (let ((?x5506 (mod y_months 48)))
 (let ((?x13 ((as const (Array Int Int)) 0)))
 (let ((?x15 (store ?x13 0 31)))
 (let ((?x18 (store ?x15 1 30)))
 (let ((?x20 (store ?x18 2 31)))
 (let ((?x22 (store ?x20 3 30)))
 (let ((?x24 (store ?x22 4 31)))
 (let ((?x26 (store ?x24 5 31)))
 (let ((?x28 (store ?x26 6 30)))
 (let ((?x30 (store ?x28 7 31)))
 (let ((?x32 (store ?x30 8 30)))
 (let ((?x34 (store ?x32 9 31)))
 (let ((?x36 (store ?x34 10 31)))
 (let ((?x39 (store ?x36 11 28)))
 (let ((?x41 (store ?x39 12 31)))
 (let ((?x43 (store ?x41 13 30)))
 (let ((?x45 (store ?x43 14 31)))
 (let ((?x47 (store ?x45 15 30)))
 (let ((?x49 (store ?x47 16 31)))
 (let ((?x51 (store ?x49 17 31)))
 (let ((?x53 (store ?x51 18 30)))
 (let ((?x55 (store ?x53 19 31)))
 (let ((?x57 (store ?x55 20 30)))
 (let ((?x59 (store ?x57 21 31)))
 (let ((?x61 (store ?x59 22 31)))
 (let ((?x63 (store ?x61 23 28)))
 (let ((?x65 (store ?x63 24 31)))
 (let ((?x67 (store ?x65 25 30)))
 (let ((?x69 (store ?x67 26 31)))
 (let ((?x71 (store ?x69 27 30)))
 (let ((?x72 (store ?x71 28 31)))
 (let ((?x74 (store ?x72 29 31)))
 (let ((?x75 (store ?x74 30 30)))
 (let ((?x76 (store ?x75 31 31)))
 (let ((?x78 (store ?x76 32 30)))
 (let ((?x80 (store ?x78 33 31)))
 (let ((?x82 (store ?x80 34 31)))
 (let ((?x84 (store ?x82 35 28)))
 (let ((?x86 (store ?x84 36 31)))
 (let ((?x88 (store ?x86 37 30)))
 (let ((?x90 (store ?x88 38 31)))
 (let ((?x92 (store ?x90 39 30)))
 (let ((?x94 (store ?x92 40 31)))
 (let ((?x96 (store ?x94 41 31)))
 (let ((?x98 (store ?x96 42 30)))
 (let ((?x100 (store ?x98 43 31)))
 (let ((?x102 (store ?x100 44 30)))
 (let ((?x104 (store ?x102 45 31)))
 (let ((?x106 (store ?x104 46 31)))
 (let ((?x108 (store ?x106 47 29)))
 (let ((?x1938 (select ?x108 ?x5506)))
 (let ((?x1352 (ite (or (= 22802 (+ y_months 24003)) (= 25202 (+ y_months 24003))) 28 ?x1938)))
 (and (<= 0 y_beta) (< y_beta ?x1352)))))))))))))))))))))))))))))))))))))))))))))))))))))))
(assert
 (<= (- 1202) z_months))
(assert
 (>= 1209 z_months))
(assert
 (let ((?x2460 (mod z_months 48)))
 (let ((?x13 ((as const (Array Int Int)) 0)))
 (let ((?x15 (store ?x13 0 31)))
 (let ((?x18 (store ?x15 1 30)))
 (let ((?x20 (store ?x18 2 31)))
 (let ((?x22 (store ?x20 3 30)))
 (let ((?x24 (store ?x22 4 31)))
 (let ((?x26 (store ?x24 5 31)))
 (let ((?x28 (store ?x26 6 30)))
 (let ((?x30 (store ?x28 7 31)))
 (let ((?x32 (store ?x30 8 30)))
 (let ((?x34 (store ?x32 9 31)))
 (let ((?x36 (store ?x34 10 31)))
 (let ((?x39 (store ?x36 11 28)))
 (let ((?x41 (store ?x39 12 31)))
 (let ((?x43 (store ?x41 13 30)))
 (let ((?x45 (store ?x43 14 31)))
 (let ((?x47 (store ?x45 15 30)))
 (let ((?x49 (store ?x47 16 31)))
 (let ((?x51 (store ?x49 17 31)))
 (let ((?x53 (store ?x51 18 30)))
 (let ((?x55 (store ?x53 19 31)))
 (let ((?x57 (store ?x55 20 30)))
 (let ((?x59 (store ?x57 21 31)))
 (let ((?x61 (store ?x59 22 31)))
 (let ((?x63 (store ?x61 23 28)))
 (let ((?x65 (store ?x63 24 31)))
 (let ((?x67 (store ?x65 25 30)))
 (let ((?x69 (store ?x67 26 31)))
 (let ((?x71 (store ?x69 27 30)))
 (let ((?x72 (store ?x71 28 31)))
 (let ((?x74 (store ?x72 29 31)))
 (let ((?x75 (store ?x74 30 30)))
 (let ((?x76 (store ?x75 31 31)))
 (let ((?x78 (store ?x76 32 30)))
 (let ((?x80 (store ?x78 33 31)))
 (let ((?x82 (store ?x80 34 31)))
 (let ((?x84 (store ?x82 35 28)))
 (let ((?x86 (store ?x84 36 31)))
 (let ((?x88 (store ?x86 37 30)))
 (let ((?x90 (store ?x88 38 31)))
 (let ((?x92 (store ?x90 39 30)))
 (let ((?x94 (store ?x92 40 31)))
 (let ((?x96 (store ?x94 41 31)))
 (let ((?x98 (store ?x96 42 30)))
 (let ((?x100 (store ?x98 43 31)))
 (let ((?x102 (store ?x100 44 30)))
 (let ((?x104 (store ?x102 45 31)))
 (let ((?x106 (store ?x104 46 31)))
 (let ((?x108 (store ?x106 47 29)))
 (let ((?x3917 (select ?x108 ?x2460)))
 (let ((?x2529 (ite (or (= 22802 (+ z_months 24003)) (= 25202 (+ z_months 24003))) 28 ?x3917)))
 (and (<= 0 z_beta) (< z_beta ?x2529)))))))))))))))))))))))))))))))))))))))))))))))))))))))
(assert
 (let ((?x4381 (+ x_months 1)))
 (let ((?x4312 (mod ?x4381 48)))
 (let ((?x2748 (ite (> 22803 (+ ?x4381 24003)) 1 (ite (<= 25203 (+ ?x4381 24003)) (- 1) 0))))
 (let ((?x13 ((as const (Array Int Int)) 0)))
 (let ((?x15 (store ?x13 0 31)))
 (let ((?x18 (store ?x15 1 30)))
 (let ((?x20 (store ?x18 2 31)))
 (let ((?x22 (store ?x20 3 30)))
 (let ((?x24 (store ?x22 4 31)))
 (let ((?x26 (store ?x24 5 31)))
 (let ((?x28 (store ?x26 6 30)))
 (let ((?x30 (store ?x28 7 31)))
 (let ((?x32 (store ?x30 8 30)))
 (let ((?x34 (store ?x32 9 31)))
 (let ((?x36 (store ?x34 10 31)))
 (let ((?x39 (store ?x36 11 28)))
 (let ((?x41 (store ?x39 12 31)))
 (let ((?x43 (store ?x41 13 30)))
 (let ((?x45 (store ?x43 14 31)))
 (let ((?x47 (store ?x45 15 30)))
 (let ((?x49 (store ?x47 16 31)))
 (let ((?x51 (store ?x49 17 31)))
 (let ((?x53 (store ?x51 18 30)))
 (let ((?x55 (store ?x53 19 31)))
 (let ((?x57 (store ?x55 20 30)))
 (let ((?x59 (store ?x57 21 31)))
 (let ((?x61 (store ?x59 22 31)))
 (let ((?x63 (store ?x61 23 28)))
 (let ((?x65 (store ?x63 24 31)))
 (let ((?x67 (store ?x65 25 30)))
 (let ((?x69 (store ?x67 26 31)))
 (let ((?x71 (store ?x69 27 30)))
 (let ((?x72 (store ?x71 28 31)))
 (let ((?x74 (store ?x72 29 31)))
 (let ((?x75 (store ?x74 30 30)))
 (let ((?x76 (store ?x75 31 31)))
 (let ((?x78 (store ?x76 32 30)))
 (let ((?x80 (store ?x78 33 31)))
 (let ((?x82 (store ?x80 34 31)))
 (let ((?x84 (store ?x82 35 28)))
 (let ((?x86 (store ?x84 36 31)))
 (let ((?x88 (store ?x86 37 30)))
 (let ((?x90 (store ?x88 38 31)))
 (let ((?x92 (store ?x90 39 30)))
 (let ((?x94 (store ?x92 40 31)))
 (let ((?x96 (store ?x94 41 31)))
 (let ((?x98 (store ?x96 42 30)))
 (let ((?x100 (store ?x98 43 31)))
 (let ((?x102 (store ?x100 44 30)))
 (let ((?x104 (store ?x102 45 31)))
 (let ((?x106 (store ?x104 46 31)))
 (let ((?x108 (store ?x106 47 29)))
 (let ((?x4298 (ite (or (= 22802 (+ ?x4381 24003)) (= 25202 (+ ?x4381 24003))) 28 (select ?x108 ?x4312))))
 (let ((?x1518 (- ?x4298 1)))
 (let (($x4484 (> 0 x_beta)))
 (let ((?x114 (store (store (store (store ?x13 0 0) 1 31) 2 61) 3 92)))
 (let ((?x122 (store (store (store (store ?x114 4 122) 5 153) 6 184) 7 214)))
 (let ((?x130 (store (store (store (store ?x122 8 245) 9 275) 10 306) 11 337)))
 (let ((?x138 (store (store (store (store ?x130 12 365) 13 396) 14 426) 15 457)))
 (let ((?x146 (store (store (store (store ?x138 16 487) 17 518) 18 549) 19 579)))
 (let ((?x154 (store (store (store (store ?x146 20 610) 21 640) 22 671) 23 702)))
 (let ((?x162 (store (store (store (store ?x154 24 730) 25 761) 26 791) 27 822)))
 (let ((?x170 (store (store (store (store ?x162 28 852) 29 883) 30 914) 31 944)))
 (let ((?x178 (store (store (store (store ?x170 32 975) 33 1005) 34 1036) 35 1067)))
 (let ((?x186 (store (store (store (store ?x178 36 1095) 37 1126) 38 1156) 39 1187)))
 (let ((?x194 (store (store (store (store ?x186 40 1217) 41 1248) 42 1279) 43 1309)))
 (let ((?x202 (store (store (store (store ?x194 44 1340) 45 1370) 46 1401) 47 1432)))
 (let ((?x1617 (+ (select ?x202 ?x4312) (ite $x4484 0 (ite (> x_beta ?x1518) ?x1518 x_beta)))))
 (let ((?x1065 (+ (+ ?x1617 ?x2748) 0)))
 (let ((?x5232 (+ ?x4381 (* (div ?x1065 1461) 48))))
 (let ((?x5558 (+ (+ ?x5232 (- 1 ?x4312)) 24003)))
 (let ((?x4837 (select ?x202 1)))
 (let ((?x1874 (mod ?x1065 1461)))
 (let (($x293 (>= ?x1874 (+ ?x4837 (ite (> 22803 ?x5558) 1 (ite (<= 25203 ?x5558) (- 1) 0))))))
 (let ((?x2650 (ite (> 22803 (+ (+ ?x5232 (- 2 ?x4312)) 24003)) 1 (ite (<= 25203 (+ (+ ?x5232 (- 2 ?x4312)) 24003)) (- 1) 0))))
 (let ((?x2616 (select ?x202 2)))
 (let ((?x2666 (ite (> 22803 (+ (+ ?x5232 (- 3 ?x4312)) 24003)) 1 (ite (<= 25203 (+ (+ ?x5232 (- 3 ?x4312)) 24003)) (- 1) 0))))
 (let ((?x5138 (select ?x202 3)))
 (let ((?x4289 (ite (>= ?x1874 (+ ?x5138 ?x2666)) 3 (ite (>= ?x1874 (+ ?x2616 ?x2650)) 2 (ite $x293 1 0)))))
 (let ((?x3900 (ite (> 22803 (+ (+ ?x5232 (- 4 ?x4312)) 24003)) 1 (ite (<= 25203 (+ (+ ?x5232 (- 4 ?x4312)) 24003)) (- 1) 0))))
 (let ((?x3753 (select ?x202 4)))
 (let ((?x1487 (ite (> 22803 (+ (+ ?x5232 (- 5 ?x4312)) 24003)) 1 (ite (<= 25203 (+ (+ ?x5232 (- 5 ?x4312)) 24003)) (- 1) 0))))
 (let ((?x3735 (select ?x202 5)))
 (let ((?x3960 (ite (>= ?x1874 (+ ?x3735 ?x1487)) 5 (ite (>= ?x1874 (+ ?x3753 ?x3900)) 4 ?x4289))))
 (let ((?x2145 (ite (> 22803 (+ (+ ?x5232 (- 6 ?x4312)) 24003)) 1 (ite (<= 25203 (+ (+ ?x5232 (- 6 ?x4312)) 24003)) (- 1) 0))))
 (let ((?x4428 (select ?x202 6)))
 (let ((?x3908 (ite (> 22803 (+ (+ ?x5232 (- 7 ?x4312)) 24003)) 1 (ite (<= 25203 (+ (+ ?x5232 (- 7 ?x4312)) 24003)) (- 1) 0))))
 (let ((?x1727 (select ?x202 7)))
 (let ((?x3404 (ite (>= ?x1874 (+ ?x1727 ?x3908)) 7 (ite (>= ?x1874 (+ ?x4428 ?x2145)) 6 ?x3960))))
 (let ((?x3272 (ite (> 22803 (+ (+ ?x5232 (- 8 ?x4312)) 24003)) 1 (ite (<= 25203 (+ (+ ?x5232 (- 8 ?x4312)) 24003)) (- 1) 0))))
 (let ((?x3229 (select ?x202 8)))
 (let ((?x1267 (ite (> 22803 (+ (+ ?x5232 (- 9 ?x4312)) 24003)) 1 (ite (<= 25203 (+ (+ ?x5232 (- 9 ?x4312)) 24003)) (- 1) 0))))
 (let ((?x1677 (select ?x202 9)))
 (let ((?x4237 (ite (>= ?x1874 (+ ?x1677 ?x1267)) 9 (ite (>= ?x1874 (+ ?x3229 ?x3272)) 8 ?x3404))))
 (let ((?x3895 (ite (> 22803 (+ (+ ?x5232 (- 10 ?x4312)) 24003)) 1 (ite (<= 25203 (+ (+ ?x5232 (- 10 ?x4312)) 24003)) (- 1) 0))))
 (let ((?x3994 (select ?x202 10)))
 (let ((?x460 (ite (> 22803 (+ (+ ?x5232 (- 11 ?x4312)) 24003)) 1 (ite (<= 25203 (+ (+ ?x5232 (- 11 ?x4312)) 24003)) (- 1) 0))))
 (let ((?x972 (select ?x202 11)))
 (let ((?x1251 (ite (>= ?x1874 (+ ?x972 ?x460)) 11 (ite (>= ?x1874 (+ ?x3994 ?x3895)) 10 ?x4237))))
 (let ((?x2015 (ite (> 22803 (+ (+ ?x5232 (- 12 ?x4312)) 24003)) 1 (ite (<= 25203 (+ (+ ?x5232 (- 12 ?x4312)) 24003)) (- 1) 0))))
 (let ((?x4012 (select ?x202 12)))
 (let ((?x337 (ite (> 22803 (+ (+ ?x5232 (- 13 ?x4312)) 24003)) 1 (ite (<= 25203 (+ (+ ?x5232 (- 13 ?x4312)) 24003)) (- 1) 0))))
 (let ((?x3631 (select ?x202 13)))
 (let ((?x3389 (ite (>= ?x1874 (+ ?x3631 ?x337)) 13 (ite (>= ?x1874 (+ ?x4012 ?x2015)) 12 ?x1251))))
 (let ((?x359 (ite (> 22803 (+ (+ ?x5232 (- 14 ?x4312)) 24003)) 1 (ite (<= 25203 (+ (+ ?x5232 (- 14 ?x4312)) 24003)) (- 1) 0))))
 (let ((?x2401 (select ?x202 14)))
 (let ((?x2147 (ite (> 22803 (+ (+ ?x5232 (- 15 ?x4312)) 24003)) 1 (ite (<= 25203 (+ (+ ?x5232 (- 15 ?x4312)) 24003)) (- 1) 0))))
 (let ((?x1839 (select ?x202 15)))
 (let ((?x3174 (ite (>= ?x1874 (+ ?x1839 ?x2147)) 15 (ite (>= ?x1874 (+ ?x2401 ?x359)) 14 ?x3389))))
 (let ((?x5736 (ite (> 22803 (+ (+ ?x5232 (- 16 ?x4312)) 24003)) 1 (ite (<= 25203 (+ (+ ?x5232 (- 16 ?x4312)) 24003)) (- 1) 0))))
 (let ((?x3186 (select ?x202 16)))
 (let ((?x5294 (ite (> 22803 (+ (+ ?x5232 (- 17 ?x4312)) 24003)) 1 (ite (<= 25203 (+ (+ ?x5232 (- 17 ?x4312)) 24003)) (- 1) 0))))
 (let ((?x4782 (select ?x202 17)))
 (let ((?x3879 (ite (>= ?x1874 (+ ?x4782 ?x5294)) 17 (ite (>= ?x1874 (+ ?x3186 ?x5736)) 16 ?x3174))))
 (let ((?x813 (ite (> 22803 (+ (+ ?x5232 (- 18 ?x4312)) 24003)) 1 (ite (<= 25203 (+ (+ ?x5232 (- 18 ?x4312)) 24003)) (- 1) 0))))
 (let ((?x4930 (select ?x202 18)))
 (let ((?x983 (ite (> 22803 (+ (+ ?x5232 (- 19 ?x4312)) 24003)) 1 (ite (<= 25203 (+ (+ ?x5232 (- 19 ?x4312)) 24003)) (- 1) 0))))
 (let ((?x1039 (select ?x202 19)))
 (let ((?x3295 (ite (>= ?x1874 (+ ?x1039 ?x983)) 19 (ite (>= ?x1874 (+ ?x4930 ?x813)) 18 ?x3879))))
 (let ((?x1410 (ite (> 22803 (+ (+ ?x5232 (- 20 ?x4312)) 24003)) 1 (ite (<= 25203 (+ (+ ?x5232 (- 20 ?x4312)) 24003)) (- 1) 0))))
 (let ((?x3590 (select ?x202 20)))
 (let ((?x5455 (ite (> 22803 (+ (+ ?x5232 (- 21 ?x4312)) 24003)) 1 (ite (<= 25203 (+ (+ ?x5232 (- 21 ?x4312)) 24003)) (- 1) 0))))
 (let ((?x5135 (select ?x202 21)))
 (let ((?x1276 (ite (>= ?x1874 (+ ?x5135 ?x5455)) 21 (ite (>= ?x1874 (+ ?x3590 ?x1410)) 20 ?x3295))))
 (let ((?x4676 (ite (> 22803 (+ (+ ?x5232 (- 22 ?x4312)) 24003)) 1 (ite (<= 25203 (+ (+ ?x5232 (- 22 ?x4312)) 24003)) (- 1) 0))))
 (let ((?x4716 (select ?x202 22)))
 (let ((?x2039 (ite (> 22803 (+ (+ ?x5232 (- 23 ?x4312)) 24003)) 1 (ite (<= 25203 (+ (+ ?x5232 (- 23 ?x4312)) 24003)) (- 1) 0))))
 (let ((?x3061 (select ?x202 23)))
 (let ((?x5571 (ite (>= ?x1874 (+ ?x3061 ?x2039)) 23 (ite (>= ?x1874 (+ ?x4716 ?x4676)) 22 ?x1276))))
 (let ((?x4750 (ite (> 22803 (+ (+ ?x5232 (- 24 ?x4312)) 24003)) 1 (ite (<= 25203 (+ (+ ?x5232 (- 24 ?x4312)) 24003)) (- 1) 0))))
 (let ((?x5361 (select ?x202 24)))
 (let ((?x2177 (ite (> 22803 (+ (+ ?x5232 (- 25 ?x4312)) 24003)) 1 (ite (<= 25203 (+ (+ ?x5232 (- 25 ?x4312)) 24003)) (- 1) 0))))
 (let ((?x3249 (select ?x202 25)))
 (let ((?x5925 (ite (>= ?x1874 (+ ?x3249 ?x2177)) 25 (ite (>= ?x1874 (+ ?x5361 ?x4750)) 24 ?x5571))))
 (let ((?x4320 (ite (> 22803 (+ (+ ?x5232 (- 26 ?x4312)) 24003)) 1 (ite (<= 25203 (+ (+ ?x5232 (- 26 ?x4312)) 24003)) (- 1) 0))))
 (let ((?x3976 (select ?x202 26)))
 (let ((?x3442 (ite (> 22803 (+ (+ ?x5232 (- 27 ?x4312)) 24003)) 1 (ite (<= 25203 (+ (+ ?x5232 (- 27 ?x4312)) 24003)) (- 1) 0))))
 (let ((?x6315 (select ?x202 27)))
 (let ((?x3506 (ite (>= ?x1874 (+ ?x6315 ?x3442)) 27 (ite (>= ?x1874 (+ ?x3976 ?x4320)) 26 ?x5925))))
 (let ((?x4539 (ite (> 22803 (+ (+ ?x5232 (- 28 ?x4312)) 24003)) 1 (ite (<= 25203 (+ (+ ?x5232 (- 28 ?x4312)) 24003)) (- 1) 0))))
 (let ((?x2109 (select ?x202 28)))
 (let ((?x3026 (ite (> 22803 (+ (+ ?x5232 (- 29 ?x4312)) 24003)) 1 (ite (<= 25203 (+ (+ ?x5232 (- 29 ?x4312)) 24003)) (- 1) 0))))
 (let ((?x4531 (select ?x202 29)))
 (let ((?x4093 (ite (>= ?x1874 (+ ?x4531 ?x3026)) 29 (ite (>= ?x1874 (+ ?x2109 ?x4539)) 28 ?x3506))))
 (let ((?x1746 (ite (> 22803 (+ (+ ?x5232 (- 30 ?x4312)) 24003)) 1 (ite (<= 25203 (+ (+ ?x5232 (- 30 ?x4312)) 24003)) (- 1) 0))))
 (let ((?x4177 (select ?x202 30)))
 (let ((?x1529 (ite (> 22803 (+ (+ ?x5232 (- 31 ?x4312)) 24003)) 1 (ite (<= 25203 (+ (+ ?x5232 (- 31 ?x4312)) 24003)) (- 1) 0))))
 (let ((?x6143 (select ?x202 31)))
 (let ((?x286 (ite (>= ?x1874 (+ ?x6143 ?x1529)) 31 (ite (>= ?x1874 (+ ?x4177 ?x1746)) 30 ?x4093))))
 (let ((?x5133 (ite (> 22803 (+ (+ ?x5232 (- 32 ?x4312)) 24003)) 1 (ite (<= 25203 (+ (+ ?x5232 (- 32 ?x4312)) 24003)) (- 1) 0))))
 (let ((?x2826 (select ?x202 32)))
 (let ((?x5051 (ite (> 22803 (+ (+ ?x5232 (- 33 ?x4312)) 24003)) 1 (ite (<= 25203 (+ (+ ?x5232 (- 33 ?x4312)) 24003)) (- 1) 0))))
 (let ((?x3040 (select ?x202 33)))
 (let ((?x1618 (ite (>= ?x1874 (+ ?x3040 ?x5051)) 33 (ite (>= ?x1874 (+ ?x2826 ?x5133)) 32 ?x286))))
 (let ((?x1407 (ite (> 22803 (+ (+ ?x5232 (- 34 ?x4312)) 24003)) 1 (ite (<= 25203 (+ (+ ?x5232 (- 34 ?x4312)) 24003)) (- 1) 0))))
 (let ((?x1387 (select ?x202 34)))
 (let ((?x5406 (ite (> 22803 (+ (+ ?x5232 (- 35 ?x4312)) 24003)) 1 (ite (<= 25203 (+ (+ ?x5232 (- 35 ?x4312)) 24003)) (- 1) 0))))
 (let ((?x728 (select ?x202 35)))
 (let ((?x3806 (ite (>= ?x1874 (+ ?x728 ?x5406)) 35 (ite (>= ?x1874 (+ ?x1387 ?x1407)) 34 ?x1618))))
 (let ((?x6581 (ite (> 22803 (+ (+ ?x5232 (- 36 ?x4312)) 24003)) 1 (ite (<= 25203 (+ (+ ?x5232 (- 36 ?x4312)) 24003)) (- 1) 0))))
 (let ((?x2941 (select ?x202 36)))
 (let ((?x2397 (ite (> 22803 (+ (+ ?x5232 (- 37 ?x4312)) 24003)) 1 (ite (<= 25203 (+ (+ ?x5232 (- 37 ?x4312)) 24003)) (- 1) 0))))
 (let ((?x3993 (select ?x202 37)))
 (let ((?x3480 (ite (>= ?x1874 (+ ?x3993 ?x2397)) 37 (ite (>= ?x1874 (+ ?x2941 ?x6581)) 36 ?x3806))))
 (let ((?x4283 (ite (> 22803 (+ (+ ?x5232 (- 38 ?x4312)) 24003)) 1 (ite (<= 25203 (+ (+ ?x5232 (- 38 ?x4312)) 24003)) (- 1) 0))))
 (let ((?x820 (select ?x202 38)))
 (let ((?x5257 (ite (> 22803 (+ (+ ?x5232 (- 39 ?x4312)) 24003)) 1 (ite (<= 25203 (+ (+ ?x5232 (- 39 ?x4312)) 24003)) (- 1) 0))))
 (let ((?x6627 (select ?x202 39)))
 (let ((?x6827 (ite (>= ?x1874 (+ ?x6627 ?x5257)) 39 (ite (>= ?x1874 (+ ?x820 ?x4283)) 38 ?x3480))))
 (let ((?x5567 (ite (> 22803 (+ (+ ?x5232 (- 40 ?x4312)) 24003)) 1 (ite (<= 25203 (+ (+ ?x5232 (- 40 ?x4312)) 24003)) (- 1) 0))))
 (let ((?x3619 (select ?x202 40)))
 (let ((?x2677 (ite (> 22803 (+ (+ ?x5232 (- 41 ?x4312)) 24003)) 1 (ite (<= 25203 (+ (+ ?x5232 (- 41 ?x4312)) 24003)) (- 1) 0))))
 (let ((?x6660 (select ?x202 41)))
 (let ((?x483 (ite (>= ?x1874 (+ ?x6660 ?x2677)) 41 (ite (>= ?x1874 (+ ?x3619 ?x5567)) 40 ?x6827))))
 (let ((?x6673 (ite (> 22803 (+ (+ ?x5232 (- 42 ?x4312)) 24003)) 1 (ite (<= 25203 (+ (+ ?x5232 (- 42 ?x4312)) 24003)) (- 1) 0))))
 (let ((?x5652 (select ?x202 42)))
 (let ((?x6106 (ite (> 22803 (+ (+ ?x5232 (- 43 ?x4312)) 24003)) 1 (ite (<= 25203 (+ (+ ?x5232 (- 43 ?x4312)) 24003)) (- 1) 0))))
 (let ((?x6033 (select ?x202 43)))
 (let ((?x3162 (ite (>= ?x1874 (+ ?x6033 ?x6106)) 43 (ite (>= ?x1874 (+ ?x5652 ?x6673)) 42 ?x483))))
 (let ((?x6705 (ite (> 22803 (+ (+ ?x5232 (- 44 ?x4312)) 24003)) 1 (ite (<= 25203 (+ (+ ?x5232 (- 44 ?x4312)) 24003)) (- 1) 0))))
 (let ((?x2052 (select ?x202 44)))
 (let ((?x4622 (ite (> 22803 (+ (+ ?x5232 (- 45 ?x4312)) 24003)) 1 (ite (<= 25203 (+ (+ ?x5232 (- 45 ?x4312)) 24003)) (- 1) 0))))
 (let ((?x5615 (select ?x202 45)))
 (let ((?x3822 (ite (>= ?x1874 (+ ?x5615 ?x4622)) 45 (ite (>= ?x1874 (+ ?x2052 ?x6705)) 44 ?x3162))))
 (let ((?x5339 (ite (> 22803 (+ (+ ?x5232 (- 46 ?x4312)) 24003)) 1 (ite (<= 25203 (+ (+ ?x5232 (- 46 ?x4312)) 24003)) (- 1) 0))))
 (let ((?x808 (select ?x202 46)))
 (let ((?x5463 (ite (> 22803 (+ (+ ?x5232 (- 47 ?x4312)) 24003)) 1 (ite (<= 25203 (+ (+ ?x5232 (- 47 ?x4312)) 24003)) (- 1) 0))))
 (let ((?x6752 (select ?x202 47)))
 (let ((?x2856 (ite (>= ?x1874 (+ ?x6752 ?x5463)) 47 (ite (>= ?x1874 (+ ?x808 ?x5339)) 46 ?x3822))))
 (let ((?x6175 (+ ?x5232 (- ?x2856 ?x4312))))
 (let ((?x6763 (+ ?x6175 24003)))
 (let ((?x4961 (+ (select ?x202 ?x2856) (ite (> 22803 ?x6763) 1 (ite (<= 25203 ?x6763) (- 1) 0)))))
 (let ((?x2849 (- ?x1874 ?x4961)))
 (let ((?x6153 (ite (or (= 22802 ?x6763) (= 25202 ?x6763)) 28 (select ?x108 ?x2856))))
 (let (($x6794 (= y_beta (ite (= 1 (ite (>= ?x2849 ?x6153) 1 0)) (- ?x2849 ?x6153) ?x2849))))
 (and (= y_months (+ ?x6175 (ite (>= ?x2849 ?x6153) 1 0))) $x6794)))))))))))))))))))))))))))))))))))))))))))))))))))))))))))))))))))))))))))))))))))))))))))))))))))))))))))))))))))))))))))))))))))))))))))))))))))))))))))))))))))))))))))))))))))))))))))))))))))))
(assert
 (let ((?x1486 (+ x_months 0)))
 (let ((?x3699 (mod ?x1486 48)))
 (let ((?x6145 (ite (> 22803 (+ ?x1486 24003)) 1 (ite (<= 25203 (+ ?x1486 24003)) (- 1) 0))))
 (let ((?x13 ((as const (Array Int Int)) 0)))
 (let ((?x15 (store ?x13 0 31)))
 (let ((?x18 (store ?x15 1 30)))
 (let ((?x20 (store ?x18 2 31)))
 (let ((?x22 (store ?x20 3 30)))
 (let ((?x24 (store ?x22 4 31)))
 (let ((?x26 (store ?x24 5 31)))
 (let ((?x28 (store ?x26 6 30)))
 (let ((?x30 (store ?x28 7 31)))
 (let ((?x32 (store ?x30 8 30)))
 (let ((?x34 (store ?x32 9 31)))
 (let ((?x36 (store ?x34 10 31)))
 (let ((?x39 (store ?x36 11 28)))
 (let ((?x41 (store ?x39 12 31)))
 (let ((?x43 (store ?x41 13 30)))
 (let ((?x45 (store ?x43 14 31)))
 (let ((?x47 (store ?x45 15 30)))
 (let ((?x49 (store ?x47 16 31)))
 (let ((?x51 (store ?x49 17 31)))
 (let ((?x53 (store ?x51 18 30)))
 (let ((?x55 (store ?x53 19 31)))
 (let ((?x57 (store ?x55 20 30)))
 (let ((?x59 (store ?x57 21 31)))
 (let ((?x61 (store ?x59 22 31)))
 (let ((?x63 (store ?x61 23 28)))
 (let ((?x65 (store ?x63 24 31)))
 (let ((?x67 (store ?x65 25 30)))
 (let ((?x69 (store ?x67 26 31)))
 (let ((?x71 (store ?x69 27 30)))
 (let ((?x72 (store ?x71 28 31)))
 (let ((?x74 (store ?x72 29 31)))
 (let ((?x75 (store ?x74 30 30)))
 (let ((?x76 (store ?x75 31 31)))
 (let ((?x78 (store ?x76 32 30)))
 (let ((?x80 (store ?x78 33 31)))
 (let ((?x82 (store ?x80 34 31)))
 (let ((?x84 (store ?x82 35 28)))
 (let ((?x86 (store ?x84 36 31)))
 (let ((?x88 (store ?x86 37 30)))
 (let ((?x90 (store ?x88 38 31)))
 (let ((?x92 (store ?x90 39 30)))
 (let ((?x94 (store ?x92 40 31)))
 (let ((?x96 (store ?x94 41 31)))
 (let ((?x98 (store ?x96 42 30)))
 (let ((?x100 (store ?x98 43 31)))
 (let ((?x102 (store ?x100 44 30)))
 (let ((?x104 (store ?x102 45 31)))
 (let ((?x106 (store ?x104 46 31)))
 (let ((?x108 (store ?x106 47 29)))
 (let ((?x6188 (ite (or (= 22802 (+ ?x1486 24003)) (= 25202 (+ ?x1486 24003))) 28 (select ?x108 ?x3699))))
 (let ((?x6189 (- ?x6188 1)))
 (let (($x4484 (> 0 x_beta)))
 (let ((?x114 (store (store (store (store ?x13 0 0) 1 31) 2 61) 3 92)))
 (let ((?x122 (store (store (store (store ?x114 4 122) 5 153) 6 184) 7 214)))
 (let ((?x130 (store (store (store (store ?x122 8 245) 9 275) 10 306) 11 337)))
 (let ((?x138 (store (store (store (store ?x130 12 365) 13 396) 14 426) 15 457)))
 (let ((?x146 (store (store (store (store ?x138 16 487) 17 518) 18 549) 19 579)))
 (let ((?x154 (store (store (store (store ?x146 20 610) 21 640) 22 671) 23 702)))
 (let ((?x162 (store (store (store (store ?x154 24 730) 25 761) 26 791) 27 822)))
 (let ((?x170 (store (store (store (store ?x162 28 852) 29 883) 30 914) 31 944)))
 (let ((?x178 (store (store (store (store ?x170 32 975) 33 1005) 34 1036) 35 1067)))
 (let ((?x186 (store (store (store (store ?x178 36 1095) 37 1126) 38 1156) 39 1187)))
 (let ((?x194 (store (store (store (store ?x186 40 1217) 41 1248) 42 1279) 43 1309)))
 (let ((?x202 (store (store (store (store ?x194 44 1340) 45 1370) 46 1401) 47 1432)))
 (let ((?x6699 (+ (select ?x202 ?x3699) (ite $x4484 0 (ite (> x_beta ?x6189) ?x6189 x_beta)))))
 (let ((?x403 (+ (+ ?x6699 ?x6145) 30)))
 (let ((?x6277 (+ ?x1486 (* (div ?x403 1461) 48))))
 (let ((?x4619 (+ (+ ?x6277 (- 1 ?x3699)) 24003)))
 (let ((?x4837 (select ?x202 1)))
 (let ((?x6270 (mod ?x403 1461)))
 (let (($x4856 (>= ?x6270 (+ ?x4837 (ite (> 22803 ?x4619) 1 (ite (<= 25203 ?x4619) (- 1) 0))))))
 (let ((?x2471 (ite (> 22803 (+ (+ ?x6277 (- 2 ?x3699)) 24003)) 1 (ite (<= 25203 (+ (+ ?x6277 (- 2 ?x3699)) 24003)) (- 1) 0))))
 (let ((?x2616 (select ?x202 2)))
 (let ((?x6706 (ite (> 22803 (+ (+ ?x6277 (- 3 ?x3699)) 24003)) 1 (ite (<= 25203 (+ (+ ?x6277 (- 3 ?x3699)) 24003)) (- 1) 0))))
 (let ((?x5138 (select ?x202 3)))
 (let ((?x6005 (ite (>= ?x6270 (+ ?x5138 ?x6706)) 3 (ite (>= ?x6270 (+ ?x2616 ?x2471)) 2 (ite $x4856 1 0)))))
 (let ((?x4515 (ite (> 22803 (+ (+ ?x6277 (- 4 ?x3699)) 24003)) 1 (ite (<= 25203 (+ (+ ?x6277 (- 4 ?x3699)) 24003)) (- 1) 0))))
 (let ((?x3753 (select ?x202 4)))
 (let ((?x4751 (ite (> 22803 (+ (+ ?x6277 (- 5 ?x3699)) 24003)) 1 (ite (<= 25203 (+ (+ ?x6277 (- 5 ?x3699)) 24003)) (- 1) 0))))
 (let ((?x3735 (select ?x202 5)))
 (let ((?x5392 (ite (>= ?x6270 (+ ?x3735 ?x4751)) 5 (ite (>= ?x6270 (+ ?x3753 ?x4515)) 4 ?x6005))))
 (let ((?x3958 (ite (> 22803 (+ (+ ?x6277 (- 6 ?x3699)) 24003)) 1 (ite (<= 25203 (+ (+ ?x6277 (- 6 ?x3699)) 24003)) (- 1) 0))))
 (let ((?x4428 (select ?x202 6)))
 (let ((?x5369 (ite (> 22803 (+ (+ ?x6277 (- 7 ?x3699)) 24003)) 1 (ite (<= 25203 (+ (+ ?x6277 (- 7 ?x3699)) 24003)) (- 1) 0))))
 (let ((?x1727 (select ?x202 7)))
 (let ((?x6553 (ite (>= ?x6270 (+ ?x1727 ?x5369)) 7 (ite (>= ?x6270 (+ ?x4428 ?x3958)) 6 ?x5392))))
 (let ((?x4761 (ite (> 22803 (+ (+ ?x6277 (- 8 ?x3699)) 24003)) 1 (ite (<= 25203 (+ (+ ?x6277 (- 8 ?x3699)) 24003)) (- 1) 0))))
 (let ((?x3229 (select ?x202 8)))
 (let ((?x849 (ite (> 22803 (+ (+ ?x6277 (- 9 ?x3699)) 24003)) 1 (ite (<= 25203 (+ (+ ?x6277 (- 9 ?x3699)) 24003)) (- 1) 0))))
 (let ((?x1677 (select ?x202 9)))
 (let ((?x6695 (ite (>= ?x6270 (+ ?x1677 ?x849)) 9 (ite (>= ?x6270 (+ ?x3229 ?x4761)) 8 ?x6553))))
 (let ((?x724 (ite (> 22803 (+ (+ ?x6277 (- 10 ?x3699)) 24003)) 1 (ite (<= 25203 (+ (+ ?x6277 (- 10 ?x3699)) 24003)) (- 1) 0))))
 (let ((?x3994 (select ?x202 10)))
 (let ((?x5459 (ite (> 22803 (+ (+ ?x6277 (- 11 ?x3699)) 24003)) 1 (ite (<= 25203 (+ (+ ?x6277 (- 11 ?x3699)) 24003)) (- 1) 0))))
 (let ((?x972 (select ?x202 11)))
 (let ((?x6352 (ite (>= ?x6270 (+ ?x972 ?x5459)) 11 (ite (>= ?x6270 (+ ?x3994 ?x724)) 10 ?x6695))))
 (let ((?x6624 (ite (> 22803 (+ (+ ?x6277 (- 12 ?x3699)) 24003)) 1 (ite (<= 25203 (+ (+ ?x6277 (- 12 ?x3699)) 24003)) (- 1) 0))))
 (let ((?x4012 (select ?x202 12)))
 (let ((?x6636 (ite (> 22803 (+ (+ ?x6277 (- 13 ?x3699)) 24003)) 1 (ite (<= 25203 (+ (+ ?x6277 (- 13 ?x3699)) 24003)) (- 1) 0))))
 (let ((?x3631 (select ?x202 13)))
 (let ((?x6507 (ite (>= ?x6270 (+ ?x3631 ?x6636)) 13 (ite (>= ?x6270 (+ ?x4012 ?x6624)) 12 ?x6352))))
 (let ((?x1094 (ite (> 22803 (+ (+ ?x6277 (- 14 ?x3699)) 24003)) 1 (ite (<= 25203 (+ (+ ?x6277 (- 14 ?x3699)) 24003)) (- 1) 0))))
 (let ((?x2401 (select ?x202 14)))
 (let ((?x6615 (ite (> 22803 (+ (+ ?x6277 (- 15 ?x3699)) 24003)) 1 (ite (<= 25203 (+ (+ ?x6277 (- 15 ?x3699)) 24003)) (- 1) 0))))
 (let ((?x1839 (select ?x202 15)))
 (let ((?x6687 (ite (>= ?x6270 (+ ?x1839 ?x6615)) 15 (ite (>= ?x6270 (+ ?x2401 ?x1094)) 14 ?x6507))))
 (let ((?x962 (ite (> 22803 (+ (+ ?x6277 (- 16 ?x3699)) 24003)) 1 (ite (<= 25203 (+ (+ ?x6277 (- 16 ?x3699)) 24003)) (- 1) 0))))
 (let ((?x3186 (select ?x202 16)))
 (let ((?x1310 (ite (> 22803 (+ (+ ?x6277 (- 17 ?x3699)) 24003)) 1 (ite (<= 25203 (+ (+ ?x6277 (- 17 ?x3699)) 24003)) (- 1) 0))))
 (let ((?x4782 (select ?x202 17)))
 (let ((?x6761 (ite (>= ?x6270 (+ ?x4782 ?x1310)) 17 (ite (>= ?x6270 (+ ?x3186 ?x962)) 16 ?x6687))))
 (let ((?x6740 (ite (> 22803 (+ (+ ?x6277 (- 18 ?x3699)) 24003)) 1 (ite (<= 25203 (+ (+ ?x6277 (- 18 ?x3699)) 24003)) (- 1) 0))))
 (let ((?x4930 (select ?x202 18)))
 (let ((?x1427 (ite (> 22803 (+ (+ ?x6277 (- 19 ?x3699)) 24003)) 1 (ite (<= 25203 (+ (+ ?x6277 (- 19 ?x3699)) 24003)) (- 1) 0))))
 (let ((?x1039 (select ?x202 19)))
 (let ((?x2251 (ite (>= ?x6270 (+ ?x1039 ?x1427)) 19 (ite (>= ?x6270 (+ ?x4930 ?x6740)) 18 ?x6761))))
 (let ((?x5919 (ite (> 22803 (+ (+ ?x6277 (- 20 ?x3699)) 24003)) 1 (ite (<= 25203 (+ (+ ?x6277 (- 20 ?x3699)) 24003)) (- 1) 0))))
 (let ((?x3590 (select ?x202 20)))
 (let ((?x4453 (ite (> 22803 (+ (+ ?x6277 (- 21 ?x3699)) 24003)) 1 (ite (<= 25203 (+ (+ ?x6277 (- 21 ?x3699)) 24003)) (- 1) 0))))
 (let ((?x5135 (select ?x202 21)))
 (let ((?x6161 (ite (>= ?x6270 (+ ?x5135 ?x4453)) 21 (ite (>= ?x6270 (+ ?x3590 ?x5919)) 20 ?x2251))))
 (let ((?x5932 (ite (> 22803 (+ (+ ?x6277 (- 22 ?x3699)) 24003)) 1 (ite (<= 25203 (+ (+ ?x6277 (- 22 ?x3699)) 24003)) (- 1) 0))))
 (let ((?x4716 (select ?x202 22)))
 (let ((?x5827 (ite (> 22803 (+ (+ ?x6277 (- 23 ?x3699)) 24003)) 1 (ite (<= 25203 (+ (+ ?x6277 (- 23 ?x3699)) 24003)) (- 1) 0))))
 (let ((?x3061 (select ?x202 23)))
 (let ((?x6500 (ite (>= ?x6270 (+ ?x3061 ?x5827)) 23 (ite (>= ?x6270 (+ ?x4716 ?x5932)) 22 ?x6161))))
 (let ((?x5912 (ite (> 22803 (+ (+ ?x6277 (- 24 ?x3699)) 24003)) 1 (ite (<= 25203 (+ (+ ?x6277 (- 24 ?x3699)) 24003)) (- 1) 0))))
 (let ((?x5361 (select ?x202 24)))
 (let ((?x3634 (ite (> 22803 (+ (+ ?x6277 (- 25 ?x3699)) 24003)) 1 (ite (<= 25203 (+ (+ ?x6277 (- 25 ?x3699)) 24003)) (- 1) 0))))
 (let ((?x3249 (select ?x202 25)))
 (let ((?x4423 (ite (>= ?x6270 (+ ?x3249 ?x3634)) 25 (ite (>= ?x6270 (+ ?x5361 ?x5912)) 24 ?x6500))))
 (let ((?x1211 (ite (> 22803 (+ (+ ?x6277 (- 26 ?x3699)) 24003)) 1 (ite (<= 25203 (+ (+ ?x6277 (- 26 ?x3699)) 24003)) (- 1) 0))))
 (let ((?x3976 (select ?x202 26)))
 (let ((?x4135 (ite (> 22803 (+ (+ ?x6277 (- 27 ?x3699)) 24003)) 1 (ite (<= 25203 (+ (+ ?x6277 (- 27 ?x3699)) 24003)) (- 1) 0))))
 (let ((?x6315 (select ?x202 27)))
 (let ((?x3932 (ite (>= ?x6270 (+ ?x6315 ?x4135)) 27 (ite (>= ?x6270 (+ ?x3976 ?x1211)) 26 ?x4423))))
 (let ((?x2099 (ite (> 22803 (+ (+ ?x6277 (- 28 ?x3699)) 24003)) 1 (ite (<= 25203 (+ (+ ?x6277 (- 28 ?x3699)) 24003)) (- 1) 0))))
 (let ((?x2109 (select ?x202 28)))
 (let ((?x5591 (ite (> 22803 (+ (+ ?x6277 (- 29 ?x3699)) 24003)) 1 (ite (<= 25203 (+ (+ ?x6277 (- 29 ?x3699)) 24003)) (- 1) 0))))
 (let ((?x4531 (select ?x202 29)))
 (let ((?x5328 (ite (>= ?x6270 (+ ?x4531 ?x5591)) 29 (ite (>= ?x6270 (+ ?x2109 ?x2099)) 28 ?x3932))))
 (let ((?x1629 (ite (> 22803 (+ (+ ?x6277 (- 30 ?x3699)) 24003)) 1 (ite (<= 25203 (+ (+ ?x6277 (- 30 ?x3699)) 24003)) (- 1) 0))))
 (let ((?x4177 (select ?x202 30)))
 (let ((?x3097 (ite (> 22803 (+ (+ ?x6277 (- 31 ?x3699)) 24003)) 1 (ite (<= 25203 (+ (+ ?x6277 (- 31 ?x3699)) 24003)) (- 1) 0))))
 (let ((?x6143 (select ?x202 31)))
 (let ((?x3624 (ite (>= ?x6270 (+ ?x6143 ?x3097)) 31 (ite (>= ?x6270 (+ ?x4177 ?x1629)) 30 ?x5328))))
 (let ((?x3433 (ite (> 22803 (+ (+ ?x6277 (- 32 ?x3699)) 24003)) 1 (ite (<= 25203 (+ (+ ?x6277 (- 32 ?x3699)) 24003)) (- 1) 0))))
 (let ((?x2826 (select ?x202 32)))
 (let ((?x4755 (ite (> 22803 (+ (+ ?x6277 (- 33 ?x3699)) 24003)) 1 (ite (<= 25203 (+ (+ ?x6277 (- 33 ?x3699)) 24003)) (- 1) 0))))
 (let ((?x3040 (select ?x202 33)))
 (let ((?x1455 (ite (>= ?x6270 (+ ?x3040 ?x4755)) 33 (ite (>= ?x6270 (+ ?x2826 ?x3433)) 32 ?x3624))))
 (let ((?x5535 (ite (> 22803 (+ (+ ?x6277 (- 34 ?x3699)) 24003)) 1 (ite (<= 25203 (+ (+ ?x6277 (- 34 ?x3699)) 24003)) (- 1) 0))))
 (let ((?x1387 (select ?x202 34)))
 (let ((?x4341 (ite (> 22803 (+ (+ ?x6277 (- 35 ?x3699)) 24003)) 1 (ite (<= 25203 (+ (+ ?x6277 (- 35 ?x3699)) 24003)) (- 1) 0))))
 (let ((?x728 (select ?x202 35)))
 (let ((?x3426 (ite (>= ?x6270 (+ ?x728 ?x4341)) 35 (ite (>= ?x6270 (+ ?x1387 ?x5535)) 34 ?x1455))))
 (let ((?x4469 (ite (> 22803 (+ (+ ?x6277 (- 36 ?x3699)) 24003)) 1 (ite (<= 25203 (+ (+ ?x6277 (- 36 ?x3699)) 24003)) (- 1) 0))))
 (let ((?x2941 (select ?x202 36)))
 (let ((?x4302 (ite (> 22803 (+ (+ ?x6277 (- 37 ?x3699)) 24003)) 1 (ite (<= 25203 (+ (+ ?x6277 (- 37 ?x3699)) 24003)) (- 1) 0))))
 (let ((?x3993 (select ?x202 37)))
 (let ((?x3668 (ite (>= ?x6270 (+ ?x3993 ?x4302)) 37 (ite (>= ?x6270 (+ ?x2941 ?x4469)) 36 ?x3426))))
 (let ((?x535 (ite (> 22803 (+ (+ ?x6277 (- 38 ?x3699)) 24003)) 1 (ite (<= 25203 (+ (+ ?x6277 (- 38 ?x3699)) 24003)) (- 1) 0))))
 (let ((?x820 (select ?x202 38)))
 (let ((?x1986 (ite (> 22803 (+ (+ ?x6277 (- 39 ?x3699)) 24003)) 1 (ite (<= 25203 (+ (+ ?x6277 (- 39 ?x3699)) 24003)) (- 1) 0))))
 (let ((?x6627 (select ?x202 39)))
 (let ((?x1131 (ite (>= ?x6270 (+ ?x6627 ?x1986)) 39 (ite (>= ?x6270 (+ ?x820 ?x535)) 38 ?x3668))))
 (let ((?x4324 (ite (> 22803 (+ (+ ?x6277 (- 40 ?x3699)) 24003)) 1 (ite (<= 25203 (+ (+ ?x6277 (- 40 ?x3699)) 24003)) (- 1) 0))))
 (let ((?x3619 (select ?x202 40)))
 (let ((?x1055 (ite (> 22803 (+ (+ ?x6277 (- 41 ?x3699)) 24003)) 1 (ite (<= 25203 (+ (+ ?x6277 (- 41 ?x3699)) 24003)) (- 1) 0))))
 (let ((?x6660 (select ?x202 41)))
 (let ((?x437 (ite (>= ?x6270 (+ ?x6660 ?x1055)) 41 (ite (>= ?x6270 (+ ?x3619 ?x4324)) 40 ?x1131))))
 (let ((?x5055 (ite (> 22803 (+ (+ ?x6277 (- 42 ?x3699)) 24003)) 1 (ite (<= 25203 (+ (+ ?x6277 (- 42 ?x3699)) 24003)) (- 1) 0))))
 (let ((?x5652 (select ?x202 42)))
 (let ((?x1903 (ite (> 22803 (+ (+ ?x6277 (- 43 ?x3699)) 24003)) 1 (ite (<= 25203 (+ (+ ?x6277 (- 43 ?x3699)) 24003)) (- 1) 0))))
 (let ((?x6033 (select ?x202 43)))
 (let ((?x4011 (ite (>= ?x6270 (+ ?x6033 ?x1903)) 43 (ite (>= ?x6270 (+ ?x5652 ?x5055)) 42 ?x437))))
 (let ((?x3377 (ite (> 22803 (+ (+ ?x6277 (- 44 ?x3699)) 24003)) 1 (ite (<= 25203 (+ (+ ?x6277 (- 44 ?x3699)) 24003)) (- 1) 0))))
 (let ((?x2052 (select ?x202 44)))
 (let ((?x1831 (ite (> 22803 (+ (+ ?x6277 (- 45 ?x3699)) 24003)) 1 (ite (<= 25203 (+ (+ ?x6277 (- 45 ?x3699)) 24003)) (- 1) 0))))
 (let ((?x5615 (select ?x202 45)))
 (let ((?x5014 (ite (>= ?x6270 (+ ?x5615 ?x1831)) 45 (ite (>= ?x6270 (+ ?x2052 ?x3377)) 44 ?x4011))))
 (let ((?x2539 (ite (> 22803 (+ (+ ?x6277 (- 46 ?x3699)) 24003)) 1 (ite (<= 25203 (+ (+ ?x6277 (- 46 ?x3699)) 24003)) (- 1) 0))))
 (let ((?x808 (select ?x202 46)))
 (let ((?x284 (ite (> 22803 (+ (+ ?x6277 (- 47 ?x3699)) 24003)) 1 (ite (<= 25203 (+ (+ ?x6277 (- 47 ?x3699)) 24003)) (- 1) 0))))
 (let ((?x6752 (select ?x202 47)))
 (let ((?x4383 (ite (>= ?x6270 (+ ?x6752 ?x284)) 47 (ite (>= ?x6270 (+ ?x808 ?x2539)) 46 ?x5014))))
 (let ((?x1760 (+ ?x6277 (- ?x4383 ?x3699))))
 (let ((?x1313 (+ ?x1760 24003)))
 (let ((?x1379 (+ (select ?x202 ?x4383) (ite (> 22803 ?x1313) 1 (ite (<= 25203 ?x1313) (- 1) 0)))))
 (let ((?x5590 (- ?x6270 ?x1379)))
 (let ((?x2256 (ite (or (= 22802 ?x1313) (= 25202 ?x1313)) 28 (select ?x108 ?x4383))))
 (let (($x1496 (= z_beta (ite (= 1 (ite (>= ?x5590 ?x2256) 1 0)) (- ?x5590 ?x2256) ?x5590))))
 (and (= z_months (+ ?x1760 (ite (>= ?x5590 ?x2256) 1 0))) $x1496)))))))))))))))))))))))))))))))))))))))))))))))))))))))))))))))))))))))))))))))))))))))))))))))))))))))))))))))))))))))))))))))))))))))))))))))))))))))))))))))))))))))))))))))))))))))))))))))))))))
(assert
 (not (and (= y_months z_months) (= y_beta z_beta))))
(check-sat)
